p tdp 55 54
53 38
39 30
37 43
19 1
21 43
31 28
20 14
44 19
13 53
39 46
42 52
29 36
3 50
33 34
14 22
2 3
55 35
21 27
45 25
51 10
32 12
29 35
12 19
36 26
24 34
41 17
5 25
5 2
6 23
7 54
42 16
42 51
17 49
39 36
17 25
18 36
44 4
43 22
34 37
13 9
31 45
8 15
15 3
23 40
47 11
4 16
23 19
13 36
12 43
48 27
10 7
15 13
32 47
50 32
